(set-logic QF_NRA)
(declare-fun x () Real)
(declare-fun y () Real)
(declare-fun z () Real)
(declare-fun w () Real)
(declare-fun b1 () Bool)
(declare-fun b2 () Bool)
;(assert (or (= (* x x) (- 1)) (= (* (+ 1 x) x) (* y y))))
;(assert (= (* x x) (- 1)))
;(assert (or (= x y) (= x w)))
;(assert (= x y))
;(assert (= b1 b2))
(assert (= (not b1) b2))
(assert (= (+ (* z z) (* w w)) 11))
;(assert (= (* x x) (* y y)))
;(assert (>= (+ (* (- x z) (- x z)) (* (- y w) (- y w))) 1))
(check-sat)